 Minimize
[ 1.0000000000000000 Z0 * Z82  ]
Subject to
c1: [ -2.7777777777777892 Z0 * Z0  + 3.3333333333333401 Z0 * Z81  + 1.0000000000000000 Z0 * Z82 -1.0000000000000000 Z21 * Z83 -1.0000000000000000 Z22 * Z84 -1.0000000000000000 Z23 * Z85 -1.0000000000000000 Z24 * Z86 -1.0000000000000000 Z25 * Z87 -1.0000000000000000 Z26 * Z88 -1.0000000000000000 Z27 * Z89 -1.0000000000000000 Z28 * Z90 -1.0000000000000000 Z29 * Z91 -1.0000000000000000 Z30 * Z92 -1.0000000000000000 Z81 * Z81  ] = 0.000000
c2: [ -1.0000000000000000 Z0 * Z21 -1.0000000000000000 Z0 * Z41  + 1.0000000000000000 Z0 * Z51  ] = 0.000000
c3: [ -1.0000000000000000 Z0 * Z22 -1.0000000000000000 Z0 * Z42  + 1.0000000000000000 Z0 * Z52  ] = 0.000000
c4: [ -1.0000000000000000 Z0 * Z23 -1.0000000000000000 Z0 * Z43  + 1.0000000000000000 Z0 * Z53  ] = 0.000000
c5: [ -1.0000000000000000 Z0 * Z24 -1.0000000000000000 Z0 * Z44  + 1.0000000000000000 Z0 * Z54  ] = 0.000000
c6: [ -1.0000000000000000 Z0 * Z25 -1.0000000000000000 Z0 * Z45  + 1.0000000000000000 Z0 * Z55  ] = 0.000000
c7: [ -1.0000000000000000 Z0 * Z26 -1.0000000000000000 Z0 * Z46  + 1.0000000000000000 Z0 * Z56  ] = 0.000000
c8: [ -1.0000000000000000 Z0 * Z27 -1.0000000000000000 Z0 * Z47  + 1.0000000000000000 Z0 * Z57  ] = 0.000000
c9: [ -1.0000000000000000 Z0 * Z28 -1.0000000000000000 Z0 * Z48  + 1.0000000000000000 Z0 * Z58  ] = 0.000000
c10: [ -1.0000000000000000 Z0 * Z29 -1.0000000000000000 Z0 * Z49  + 1.0000000000000000 Z0 * Z59  ] = 0.000000
c11: [ -1.0000000000000000 Z0 * Z30 -1.0000000000000000 Z0 * Z50  + 1.0000000000000000 Z0 * Z60  ] = 0.000000
c12: [ -1.0000000000000000 Z0 * Z31  + 1.0000000000000000 Z0 * Z61 -1.0000000000000000 Z21 * Z71  ] = 0.000000
c13: [ -1.0000000000000000 Z0 * Z32  + 1.0000000000000000 Z0 * Z62 -1.0000000000000000 Z22 * Z72  ] = 0.000000
c14: [ -1.0000000000000000 Z0 * Z33  + 1.0000000000000000 Z0 * Z63 -1.0000000000000000 Z23 * Z73  ] = 0.000000
c15: [ -1.0000000000000000 Z0 * Z34  + 1.0000000000000000 Z0 * Z64 -1.0000000000000000 Z24 * Z74  ] = 0.000000
c16: [ -1.0000000000000000 Z0 * Z35  + 1.0000000000000000 Z0 * Z65 -1.0000000000000000 Z25 * Z75  ] = 0.000000
c17: [ -1.0000000000000000 Z0 * Z36  + 1.0000000000000000 Z0 * Z66 -1.0000000000000000 Z26 * Z76  ] = 0.000000
c18: [ -1.0000000000000000 Z0 * Z37  + 1.0000000000000000 Z0 * Z67 -1.0000000000000000 Z27 * Z77  ] = 0.000000
c19: [ -1.0000000000000000 Z0 * Z38  + 1.0000000000000000 Z0 * Z68 -1.0000000000000000 Z28 * Z78  ] = 0.000000
c20: [ -1.0000000000000000 Z0 * Z39  + 1.0000000000000000 Z0 * Z69 -1.0000000000000000 Z29 * Z79  ] = 0.000000
c21: [ -1.0000000000000000 Z0 * Z40  + 1.0000000000000000 Z0 * Z70 -1.0000000000000000 Z30 * Z80  ] = 0.000000
c22: [ 1.0000000000000000 Z0 * Z1 -2.0000000000000000 Z0 * Z11  ] = -1.000000
c23: [ 1.0000000000000000 Z0 * Z2 -2.0000000000000000 Z0 * Z12  ] = -1.000000
c24: [ 1.0000000000000000 Z0 * Z3 -2.0000000000000000 Z0 * Z13  ] = -1.000000
c25: [ 1.0000000000000000 Z0 * Z4 -2.0000000000000000 Z0 * Z14  ] = -1.000000
c26: [ 1.0000000000000000 Z0 * Z5 -2.0000000000000000 Z0 * Z15  ] = -1.000000
c27: [ 1.0000000000000000 Z0 * Z6 -2.0000000000000000 Z0 * Z16  ] = -1.000000
c28: [ 1.0000000000000000 Z0 * Z7 -2.0000000000000000 Z0 * Z17  ] = -1.000000
c29: [ 1.0000000000000000 Z0 * Z8 -2.0000000000000000 Z0 * Z18  ] = -1.000000
c30: [ 1.0000000000000000 Z0 * Z9 -2.0000000000000000 Z0 * Z19  ] = -1.000000
c31: [ 1.0000000000000000 Z0 * Z10 -2.0000000000000000 Z0 * Z20  ] = -1.000000
c32: [ 2.0000000000000000 Z0 * Z11 -1.0000000000000000 Z0 * Z61  ] <= 2.000000
c33: [ 2.0000000000000000 Z0 * Z12 -1.0000000000000000 Z0 * Z62  ] <= 2.000000
c34: [ 2.0000000000000000 Z0 * Z13 -1.0000000000000000 Z0 * Z63  ] <= 2.000000
c35: [ 2.0000000000000000 Z0 * Z14 -1.0000000000000000 Z0 * Z64  ] <= 2.000000
c36: [ 2.0000000000000000 Z0 * Z15 -1.0000000000000000 Z0 * Z65  ] <= 2.000000
c37: [ 2.0000000000000000 Z0 * Z16 -1.0000000000000000 Z0 * Z66  ] <= 2.000000
c38: [ 2.0000000000000000 Z0 * Z17 -1.0000000000000000 Z0 * Z67  ] <= 2.000000
c39: [ 2.0000000000000000 Z0 * Z18 -1.0000000000000000 Z0 * Z68  ] <= 2.000000
c40: [ 2.0000000000000000 Z0 * Z19 -1.0000000000000000 Z0 * Z69  ] <= 2.000000
c41: [ 2.0000000000000000 Z0 * Z20 -1.0000000000000000 Z0 * Z70  ] <= 2.000000
c42: [ 2.0000000000000000 Z0 * Z11 -1.0000000000000000 Z0 * Z61  ] >= 0.000000
c43: [ 2.0000000000000000 Z0 * Z12 -1.0000000000000000 Z0 * Z62  ] >= 0.000000
c44: [ 2.0000000000000000 Z0 * Z13 -1.0000000000000000 Z0 * Z63  ] >= 0.000000
c45: [ 2.0000000000000000 Z0 * Z14 -1.0000000000000000 Z0 * Z64  ] >= 0.000000
c46: [ 2.0000000000000000 Z0 * Z15 -1.0000000000000000 Z0 * Z65  ] >= 0.000000
c47: [ 2.0000000000000000 Z0 * Z16 -1.0000000000000000 Z0 * Z66  ] >= 0.000000
c48: [ 2.0000000000000000 Z0 * Z17 -1.0000000000000000 Z0 * Z67  ] >= 0.000000
c49: [ 2.0000000000000000 Z0 * Z18 -1.0000000000000000 Z0 * Z68  ] >= 0.000000
c50: [ 2.0000000000000000 Z0 * Z19 -1.0000000000000000 Z0 * Z69  ] >= 0.000000
c51: [ 2.0000000000000000 Z0 * Z20 -1.0000000000000000 Z0 * Z70  ] >= 0.000000
c52: [ 2.0000000000000000 Z0 * Z11  ] <= 2.000000
c53: [ 2.0000000000000000 Z0 * Z12 -1.0000000000000000 Z0 * Z61  ] <= 2.000000
c54: [ 2.0000000000000000 Z0 * Z13 -1.0000000000000000 Z0 * Z62  ] <= 2.000000
c55: [ 2.0000000000000000 Z0 * Z14 -1.0000000000000000 Z0 * Z63  ] <= 2.000000
c56: [ 2.0000000000000000 Z0 * Z15 -1.0000000000000000 Z0 * Z64  ] <= 2.000000
c57: [ 2.0000000000000000 Z0 * Z16 -1.0000000000000000 Z0 * Z65  ] <= 2.000000
c58: [ 2.0000000000000000 Z0 * Z17 -1.0000000000000000 Z0 * Z66  ] <= 2.000000
c59: [ 2.0000000000000000 Z0 * Z18 -1.0000000000000000 Z0 * Z67  ] <= 2.000000
c60: [ 2.0000000000000000 Z0 * Z19 -1.0000000000000000 Z0 * Z68  ] <= 2.000000
c61: [ 2.0000000000000000 Z0 * Z20 -1.0000000000000000 Z0 * Z69  ] <= 2.000000
c62: [ 2.0000000000000000 Z0 * Z11  ] >= 0.000000
c63: [ 2.0000000000000000 Z0 * Z12 -1.0000000000000000 Z0 * Z61  ] >= 0.000000
c64: [ 2.0000000000000000 Z0 * Z13 -1.0000000000000000 Z0 * Z62  ] >= 0.000000
c65: [ 2.0000000000000000 Z0 * Z14 -1.0000000000000000 Z0 * Z63  ] >= 0.000000
c66: [ 2.0000000000000000 Z0 * Z15 -1.0000000000000000 Z0 * Z64  ] >= 0.000000
c67: [ 2.0000000000000000 Z0 * Z16 -1.0000000000000000 Z0 * Z65  ] >= 0.000000
c68: [ 2.0000000000000000 Z0 * Z17 -1.0000000000000000 Z0 * Z66  ] >= 0.000000
c69: [ 2.0000000000000000 Z0 * Z18 -1.0000000000000000 Z0 * Z67  ] >= 0.000000
c70: [ 2.0000000000000000 Z0 * Z19 -1.0000000000000000 Z0 * Z68  ] >= 0.000000
c71: [ 2.0000000000000000 Z0 * Z20 -1.0000000000000000 Z0 * Z69  ] >= 0.000000
c72: [ -1.0000000000000000 Z0 * Z21 -1.0000000000000000 Z0 * Z41  + 1.0000000000000000 Z0 * Z42  ] = 0.000000
c73: [ -1.0000000000000000 Z0 * Z22 -1.0000000000000000 Z0 * Z42  + 1.0000000000000000 Z0 * Z43  ] = 0.000000
c74: [ -1.0000000000000000 Z0 * Z23 -1.0000000000000000 Z0 * Z43  + 1.0000000000000000 Z0 * Z44  ] = 0.000000
c75: [ -1.0000000000000000 Z0 * Z24 -1.0000000000000000 Z0 * Z44  + 1.0000000000000000 Z0 * Z45  ] = 0.000000
c76: [ -1.0000000000000000 Z0 * Z25 -1.0000000000000000 Z0 * Z45  + 1.0000000000000000 Z0 * Z46  ] = 0.000000
c77: [ -1.0000000000000000 Z0 * Z26 -1.0000000000000000 Z0 * Z46  + 1.0000000000000000 Z0 * Z47  ] = 0.000000
c78: [ -1.0000000000000000 Z0 * Z27 -1.0000000000000000 Z0 * Z47  + 1.0000000000000000 Z0 * Z48  ] = 0.000000
c79: [ -1.0000000000000000 Z0 * Z28 -1.0000000000000000 Z0 * Z48  + 1.0000000000000000 Z0 * Z49  ] = 0.000000
c80: [ -1.0000000000000000 Z0 * Z29 -1.0000000000000000 Z0 * Z49  + 1.0000000000000000 Z0 * Z50  ] = 0.000000
c81: [ -1.0000000000000000 Z0 * Z31  + 1.0000000000000000 Z0 * Z32 -1.0000000000000000 Z21 * Z71  ] = 0.000000
c82: [ -1.0000000000000000 Z0 * Z32  + 1.0000000000000000 Z0 * Z33 -1.0000000000000000 Z22 * Z72  ] = 0.000000
c83: [ -1.0000000000000000 Z0 * Z33  + 1.0000000000000000 Z0 * Z34 -1.0000000000000000 Z23 * Z73  ] = 0.000000
c84: [ -1.0000000000000000 Z0 * Z34  + 1.0000000000000000 Z0 * Z35 -1.0000000000000000 Z24 * Z74  ] = 0.000000
c85: [ -1.0000000000000000 Z0 * Z35  + 1.0000000000000000 Z0 * Z36 -1.0000000000000000 Z25 * Z75  ] = 0.000000
c86: [ -1.0000000000000000 Z0 * Z36  + 1.0000000000000000 Z0 * Z37 -1.0000000000000000 Z26 * Z76  ] = 0.000000
c87: [ -1.0000000000000000 Z0 * Z37  + 1.0000000000000000 Z0 * Z38 -1.0000000000000000 Z27 * Z77  ] = 0.000000
c88: [ -1.0000000000000000 Z0 * Z38  + 1.0000000000000000 Z0 * Z39 -1.0000000000000000 Z28 * Z78  ] = 0.000000
c89: [ -1.0000000000000000 Z0 * Z39  + 1.0000000000000000 Z0 * Z40 -1.0000000000000000 Z29 * Z79  ] = 0.000000
c90: [ -1.0000000000000000 Z0 * Z40  + 1.0000000000000000 Z0 * Z81 -1.0000000000000000 Z30 * Z80  ] = 0.000000
c91: [ 1.0000000000000000 Z0 * Z1  + 1.0000000000000000 Z0 * Z71  ] = 2.000000
c92: [ 1.0000000000000000 Z0 * Z2  + 1.0000000000000000 Z0 * Z72  ] = 2.000000
c93: [ 1.0000000000000000 Z0 * Z3  + 1.0000000000000000 Z0 * Z73  ] = 2.000000
c94: [ 1.0000000000000000 Z0 * Z4  + 1.0000000000000000 Z0 * Z74  ] = 2.000000
c95: [ 1.0000000000000000 Z0 * Z5  + 1.0000000000000000 Z0 * Z75  ] = 2.000000
c96: [ 1.0000000000000000 Z0 * Z6  + 1.0000000000000000 Z0 * Z76  ] = 2.000000
c97: [ 1.0000000000000000 Z0 * Z7  + 1.0000000000000000 Z0 * Z77  ] = 2.000000
c98: [ 1.0000000000000000 Z0 * Z8  + 1.0000000000000000 Z0 * Z78  ] = 2.000000
c99: [ 1.0000000000000000 Z0 * Z9  + 1.0000000000000000 Z0 * Z79  ] = 2.000000
c100: [ 1.0000000000000000 Z0 * Z10  + 1.0000000000000000 Z0 * Z80  ] = 2.000000
c101: [ 1.0000000000000000 Z0 * Z21  + 1.0000000000000000 Z0 * Z22  + 1.0000000000000000 Z0 * Z23  + 1.0000000000000000 Z0 * Z24  + 1.0000000000000000 Z0 * Z25  + 1.0000000000000000 Z0 * Z26  + 1.0000000000000000 Z0 * Z27  + 1.0000000000000000 Z0 * Z28  + 1.0000000000000000 Z0 * Z29  + 1.0000000000000000 Z0 * Z30  ] = 2.000000
ac1: Z0 - 1 = 0
ac2: [ 1.0000000000000000 Z0 * Z83 -1.0000000000000000 Z61 * Z61  ] = 0
ac3: [ 1.0000000000000000 Z0 * Z84 -1.0000000000000000 Z62 * Z62  ] = 0
ac4: [ 1.0000000000000000 Z0 * Z85 -1.0000000000000000 Z63 * Z63  ] = 0
ac5: [ 1.0000000000000000 Z0 * Z86 -1.0000000000000000 Z64 * Z64  ] = 0
ac6: [ 1.0000000000000000 Z0 * Z87 -1.0000000000000000 Z65 * Z65  ] = 0
ac7: [ 1.0000000000000000 Z0 * Z88 -1.0000000000000000 Z66 * Z66  ] = 0
ac8: [ 1.0000000000000000 Z0 * Z89 -1.0000000000000000 Z67 * Z67  ] = 0
ac9: [ 1.0000000000000000 Z0 * Z90 -1.0000000000000000 Z68 * Z68  ] = 0
ac10: [ 1.0000000000000000 Z0 * Z91 -1.0000000000000000 Z69 * Z69  ] = 0
ac11: [ 1.0000000000000000 Z0 * Z92 -1.0000000000000000 Z70 * Z70  ] = 0
Bounds
1 <= Z0 <= 1
-1.0000000000000000 <= Z1 <= 1.0000000000000000
-1.0000000000000000 <= Z2 <= 1.0000000000000000
-1.0000000000000000 <= Z3 <= 1.0000000000000000
-1.0000000000000000 <= Z4 <= 1.0000000000000000
-1.0000000000000000 <= Z5 <= 1.0000000000000000
-1.0000000000000000 <= Z6 <= 1.0000000000000000
-1.0000000000000000 <= Z7 <= 1.0000000000000000
-1.0000000000000000 <= Z8 <= 1.0000000000000000
-1.0000000000000000 <= Z9 <= 1.0000000000000000
-1.0000000000000000 <= Z10 <= 1.0000000000000000
0.0000000000000000 <= Z11 <= 1.0000000000000000
0.0000000000000000 <= Z12 <= 1.0000000000000000
0.0000000000000000 <= Z13 <= 1.0000000000000000
0.0000000000000000 <= Z14 <= 1.0000000000000000
0.0000000000000000 <= Z15 <= 1.0000000000000000
0.0000000000000000 <= Z16 <= 1.0000000000000000
0.0000000000000000 <= Z17 <= 1.0000000000000000
0.0000000000000000 <= Z18 <= 1.0000000000000000
0.0000000000000000 <= Z19 <= 1.0000000000000000
0.0000000000000000 <= Z20 <= 1.0000000000000000
0.1600000000000000 <= Z21 <= 0.2400000000000000
0.1600000000000000 <= Z22 <= 0.2400000000000000
0.1600000000000000 <= Z23 <= 0.2400000000000000
0.1600000000000000 <= Z24 <= 0.2400000000000000
0.1600000000000000 <= Z25 <= 0.2400000000000000
0.1600000000000000 <= Z26 <= 0.2400000000000000
0.1600000000000000 <= Z27 <= 0.2400000000000000
0.1600000000000000 <= Z28 <= 0.2400000000000000
0.1600000000000000 <= Z29 <= 0.2400000000000000
0.1600000000000000 <= Z30 <= 0.2400000000000000
-2.0000000000000000 <= Z31 <= -2.0000000000000000
-100000000.0000000000000000 <= Z32 <= 100000000.0000000000000000
-100000000.0000000000000000 <= Z33 <= 100000000.0000000000000000
-100000000.0000000000000000 <= Z34 <= 100000000.0000000000000000
-100000000.0000000000000000 <= Z35 <= 100000000.0000000000000000
-100000000.0000000000000000 <= Z36 <= 100000000.0000000000000000
-100000000.0000000000000000 <= Z37 <= 100000000.0000000000000000
-100000000.0000000000000000 <= Z38 <= 100000000.0000000000000000
-100000000.0000000000000000 <= Z39 <= 100000000.0000000000000000
-100000000.0000000000000000 <= Z40 <= 100000000.0000000000000000
0.0000000000000000 <= Z41 <= 0.0000000000000000
-100000000.0000000000000000 <= Z42 <= 100000000.0000000000000000
-100000000.0000000000000000 <= Z43 <= 100000000.0000000000000000
-100000000.0000000000000000 <= Z44 <= 100000000.0000000000000000
-100000000.0000000000000000 <= Z45 <= 100000000.0000000000000000
-100000000.0000000000000000 <= Z46 <= 100000000.0000000000000000
-100000000.0000000000000000 <= Z47 <= 100000000.0000000000000000
-100000000.0000000000000000 <= Z48 <= 100000000.0000000000000000
-100000000.0000000000000000 <= Z49 <= 100000000.0000000000000000
-100000000.0000000000000000 <= Z50 <= 100000000.0000000000000000
-100000000.0000000000000000 <= Z51 <= 100000000.0000000000000000
-100000000.0000000000000000 <= Z52 <= 100000000.0000000000000000
-100000000.0000000000000000 <= Z53 <= 100000000.0000000000000000
-100000000.0000000000000000 <= Z54 <= 100000000.0000000000000000
-100000000.0000000000000000 <= Z55 <= 100000000.0000000000000000
-100000000.0000000000000000 <= Z56 <= 100000000.0000000000000000
-100000000.0000000000000000 <= Z57 <= 100000000.0000000000000000
-100000000.0000000000000000 <= Z58 <= 100000000.0000000000000000
-100000000.0000000000000000 <= Z59 <= 100000000.0000000000000000
-100000000.0000000000000000 <= Z60 <= 100000000.0000000000000000
-2.0000000000000000 <= Z61 <= 2.0000000000000000
-2.0000000000000000 <= Z62 <= 2.0000000000000000
-2.0000000000000000 <= Z63 <= 2.0000000000000000
-2.0000000000000000 <= Z64 <= 2.0000000000000000
-2.0000000000000000 <= Z65 <= 2.0000000000000000
-2.0000000000000000 <= Z66 <= 2.0000000000000000
-2.0000000000000000 <= Z67 <= 2.0000000000000000
-2.0000000000000000 <= Z68 <= 2.0000000000000000
-2.0000000000000000 <= Z69 <= 2.0000000000000000
-2.0000000000000000 <= Z70 <= 2.0000000000000000
-100000000.0000000000000000 <= Z71 <= 100000000.0000000000000000
-100000000.0000000000000000 <= Z72 <= 100000000.0000000000000000
-100000000.0000000000000000 <= Z73 <= 100000000.0000000000000000
-100000000.0000000000000000 <= Z74 <= 100000000.0000000000000000
-100000000.0000000000000000 <= Z75 <= 100000000.0000000000000000
-100000000.0000000000000000 <= Z76 <= 100000000.0000000000000000
-100000000.0000000000000000 <= Z77 <= 100000000.0000000000000000
-100000000.0000000000000000 <= Z78 <= 100000000.0000000000000000
-100000000.0000000000000000 <= Z79 <= 100000000.0000000000000000
-100000000.0000000000000000 <= Z80 <= 100000000.0000000000000000
-100000000.0000000000000000 <= Z81 <= 100000000.0000000000000000
-100000000.0000000000000000 <= Z82 <= 100000000.0000000000000000
-4.0000000000000000 <= Z83 <= 4.0000000000000000
-4.0000000000000000 <= Z84 <= 4.0000000000000000
-4.0000000000000000 <= Z85 <= 4.0000000000000000
-4.0000000000000000 <= Z86 <= 4.0000000000000000
-4.0000000000000000 <= Z87 <= 4.0000000000000000
-4.0000000000000000 <= Z88 <= 4.0000000000000000
-4.0000000000000000 <= Z89 <= 4.0000000000000000
-4.0000000000000000 <= Z90 <= 4.0000000000000000
-4.0000000000000000 <= Z91 <= 4.0000000000000000
-4.0000000000000000 <= Z92 <= 4.0000000000000000
Binaries
Z11 Z12 Z13 Z14 Z15 Z16 Z17 Z18 Z19 Z20 
End